1 1640
2 1460
3 1441
5 1402
7 1400
14 1376
24 1364
90 1347
238 1337
787 1315



1 1617
2 1428
5 1415
7 1386
26 1381
37 1370
95 1363
233 1345
255 1332



1 1606
2 1484
3 1460
5 1435
6 1397
20 1388
25 1359
189 1356
223 1352
670 1348
746 1329



1 1673
2 1402
19 1390
23 1389
34 1378
66 1372
107 1371
142 1370
164 1369
198 1353
332 1318



1 1560
2 1484
3 1421
4 1415
5 1403
11 1395
16 1379
19 1378
25 1373
31 1345
478 1344



